set nodes := 1 2 3 4 5 6 7 8 9 10 11 12 13 14 15 16 17 18 19 20 21 22 23 24 25 26 27 28 29 30 31 32 33 34 35 36 37 38 39 40 41 42 43 44 45 46 47 48  53 54 63 64 65 66 67 68 69 70 71 72 73 74 75 76 77 78 79 80 81 82 100;
# set nodes := 1 2 3 4 5 6 7 8 9 10 11 12 13 14 15 16 17 18 19 20 21 22 23 24 25 26 27 28 29 30 31 32 33 34 35 36 37 38 39 40 41 42 43 44 45 46 47 48 49 53 54 63 64 65 66 67 68 69 70 71 72 73 74 75 76 77 78 79 80 81 82 100;

set pipes := 0 1 2 3 4 5 6 7 8 9 10 11 12 13 14 15 16 17 18 19 20;

param : arcs : L :=
1    2    47.8
2    3    56.3
3    4    48.5
4    5    51.3
5    6    48.8
6    7    51.0
7    8    45.2
8    9    55.8
9    10    48.9
10    11    53.0
3    12    31.3
12    13    54.0
13    14    45.2
14    15    26.3
15    16    18.5
16    17    51.1
17    18    50.7
15    19    8.74
19    20    18.0
20    21    41.1
21    22    32.5
21    23    47.5
23    24    48.4
24    25    48.0
25    26    47.6
26    27    52.4
27    28    48.8
28    29    37.8
29    30    40.8
16    31    67.4
31    32    58.3
32    33    47.0
33    34    64.2
34    35    60.0
78    36    67.6
36    37    82.7
35    80    79.3
38    39    43.2
38    40    26.7
40    41    62.8
41    42    57.2
40    43    61.3
43    44    37.6
44    45    38.2
45    46    49.2
46    47    51.6
# 47    49    46.4
19    53    42.5
53    54    39.0
10    63    45.8
63    64    57.7
64    65    51.0
65    66    55.1
66    67    40.1
67    68    57.7
68    69    50.2
69    70    26.2
70    48    12.2
31    71    79.23
71    72    55.0
12    73    40.39
73    74    61.5
20    75    31.5
75    76    31.5
25    77    38.9
78    79    31.1
35    78    25.28
80    81    47.7
80    38    47.8
44    82    42.5
100    1    15.0;

param E :=
1   80.38
2   78.66
3   78.7
4   77.15
5   77.22
6   78.06
7   78.07
8   78.97
9   79.3
10   80.3
11   81.34
12   78.87
13   79.0
14   78.87
15   78.6
16   75.7
17   75.8
18   75.8
19   77.5
20   76.63
21   74.54
22   75.8
23   73.92
24   73.53
25   73.0
26   73.7
27   72.95
28   72.16
29   71.58
30   71.57
31   73.4
32   73.11
33   72.41
34   72.7
35   72.02
36   71.75
37   71.58
38   73.05
39   73.1
40   73.2
41   73.4
42   73.46
43   73.81
44   73.9
45   73.9
46   74.9
47   75.0
48   75.33
# 49   75.33
53   80.6
54   81.91
63   78.94
64   78.52
65   78.25
66   78.13
67   76.62
68   76.06
69   75.92
70   75.16
71   73.5
72   73.05
73   77.41
74   76.46
75   77.1
76   78.7
77   72.3
78   72.04
79   72.1
80   72.37
81   72.9
82   73.47
100   92.4;

param P :=
1   7.0
2   7.0
3   7.0
4   7.0
5   7.0
6   7.0
7   7.0
8   7.0
9   7.0
10   7.0
11   7.0
12   7.0
13   7.0
14   7.0
15   7.0
16   7.0
17   7.0
18   7.0
19   7.0
20   7.0
21   7.0
22   7.0
23   7.0
24   7.0
25   7.0
26   7.0
27   7.0
28   7.0
29   7.0
30   7.0
31   7.0
32   7.0
33   7.0
34   7.0
35   7.0
36   7.0
37   7.0
38   7.0
39   7.0
40   7.0
41   7.0
42   7.0
43   7.0
44   7.0
45   7.0
46   7.0
47   7.0
48   7.0
# 49   7.0
53   7.0
54   7.0
63   7.0
64   7.0
65   7.0
66   7.0
67   7.0
68   7.0
69   7.0
70   7.0
71   7.0
72   7.0
73   7.0
74   7.0
75   7.0
76   7.0
77   7.0
78   7.0
79   7.0
80   7.0
81   7.0
82   7.0
100   0.0;

param D :=
1   0.0
2   2.13
3   0.96
4   0.0
5   0.0
6   0.03
7   0.06
8   0.18
9   0.06
10   0.08
11   3.0199999999999996
12   0.52
13   0.68
14   0.2
15   0.06
16   0.18
17   0.17
18   0.18
19   0.81
20   0.72
21   0.9299999999999999
22   0.03
23   1.1099999999999999
24   0.63
25   0.6000000000000001
26   1.6500000000000001
27   0.135
28   1.23
29   1.83
30   0.09
31   0.09
32   1.17
33   1.26
34   2.16
35   0.63
36   5.85
37   0.72
38   0.24
39   0.5700000000000001
40   1.6500000000000001
41   1.47
42   0.51
43   1.71
44   1.23
45   2.7600000000000002
46   2.7600000000000002
47   0.36
48   1.08
# 49   0.0
53   0.18
54   0.39
63   2.4899999999999998
64   2.52
65   1.1099999999999999
66   1.23
67   5.34
68   1.17
69   1.41
70   0.15000000000000002
71   0.03
72   0.18
73   0.51
74   2.37
75   0.81
76   0.09
77   0.8999999999999999
78   2.07
79   0.75
80   1.71
81   0.48
82   0.0
100   -70.38499999999999;

param d :=
0   110.0
1   140.0
2   160.0
3   180.0
4   200.0
5   225.0
6   250.0
7   280.0
8   315.0
9   350.0
10   400.0
11   450.0
12   500.0
13   600.0
14   700.0
15   750.0
16   800.0
17   900.0
18   1000.0
19   1100.0
20   1200.0;

param C :=
0   251.0
1   419.0
2   541.0
3   719.0
4   920.0
5   1160.0
6   1448.0
7   1909.0
8   2436.0
9   3441.0
10   4124.0
11   5019.0
12   5839.0
13   7637.0
14   9847.0
15   11077.0
16   12055.0
17   14734.0
18   17816.0
19   21310.0
20   24670.0;

param R :=
0   145.0
1   145.0
2   145.0
3   145.0
4   145.0
5   145.0
6   145.0
7   145.0
8   145.0
9   140.0
10   140.0
11   140.0
12   140.0
13   140.0
14   140.0
15   140.0
16   140.0
17   140.0
18   140.0
19   140.0
20   140.0;

set Source := 100;

# param : F_arcs : F_L :=;

# param F_d :=;

# param F_R :=;

param vmax :=
1    2    35.0
2    3    35.0
3    4    35.0
4    5    35.0
5    6    35.0
6    7    35.0
7    8    35.0
8    9    35.0
9    10    35.0
10    11    35.0
3    12    35.0
12    13    35.0
13    14    35.0
14    15    35.0
15    16    35.0
16    17    35.0
17    18    35.0
15    19    35.0
19    20    35.0
20    21    35.0
21    22    35.0
21    23    35.0
23    24    35.0
24    25    35.0
25    26    35.0
26    27    35.0
27    28    35.0
28    29    35.0
29    30    35.0
16    31    35.0
31    32    35.0
32    33    35.0
33    34    35.0
34    35    35.0
78    36    35.0
36    37    35.0
35    80    35.0
38    39    35.0
38    40    35.0
40    41    35.0
41    42    35.0
40    43    35.0
43    44    35.0
44    45    35.0
45    46    35.0
46    47    35.0
# 47    49    35.0
19    53    35.0
53    54    35.0
10    63    35.0
63    64    35.0
64    65    35.0
65    66    35.0
66    67    35.0
67    68    35.0
68    69    35.0
69    70    35.0
70    48    35.0
31    71    35.0
71    72    35.0
12    73    35.0
73    74    35.0
20    75    35.0
75    76    35.0
25    77    35.0
78    79    35.0
35    78    35.0
80    81    35.0
80    38    35.0
44    82    35.0
100    1    35.0;